50
    34    62    82    98    16    22    67     6    62    51    50    37    82    29    38    28     3    76   100     8    65    54    75    95    26    64    64    99    59    48    36    20    52    89    25    49     9    12    29    66    50    79    14    45    10    95     9    47    39     7
     9    10     3     1     6    10     8    10     2     2     8     4     5     9     6     3     4     5     7     3     6     6     7     8     1     1     7     9     3     1     3     4     2     9     7     9     3     9     1     6     5     1    10     5     1     2     5     2     9     4
   230  1322   492   280    89   563     1   436  1609  1771   488  1055  1694   144    19   463  1018   514  1533   402  1703   864  1467   499   232  1556   297  1300   370   271   688   641   366  1230   890   485   153   620   510  1399  1885  1521  1525  1769  1902  1244   726  1797   789   544
